(set-info :source |printed by MathSAT|)
(declare-fun call__DRAGON_.ite44 () Int)
(declare-fun param_e12 () Bool)
(declare-fun call__DRAGON_.ite37 () Int)
(declare-fun call__DRAGON_.flby () Int)
(declare-fun call__DRAGON_.ite42 () Int)
(declare-fun call__DRAGON_.ite6 () Int)
(declare-fun call_First.First () Int)
(declare-fun call__DRAGON_.flby5 () Int)
(declare-fun call__DRAGON_.g04 () Bool)
(declare-fun call__DRAGON_.ite17 () Int)
(declare-fun call__DRAGON_.ite10 () Int)
(declare-fun call__DRAGON_.exclusive () Int)
(declare-fun erreur () Bool)
(declare-fun call__DRAGON_.ite21 () Int)
(declare-fun call__DRAGON_.ite47 () Int)
(declare-fun call__DRAGON_.ite57 () Int)
(declare-fun call__DRAGON_.ite13 () Int)
(declare-fun shared_dirty () Int)
(declare-fun call__DRAGON_.ite33 () Int)
(declare-fun call__DRAGON_.invalid () Int)
(declare-fun call__DRAGON_.ite34 () Int)
(declare-fun param_init_invalid () Int)
(declare-fun param_e02 () Bool)
(declare-fun param_e05 () Bool)
(declare-fun call_Sofar.flby () Bool)
(declare-fun param_e10 () Bool)
(declare-fun exclusive () Int)
(declare-fun call__DRAGON_.ite31 () Int)
(declare-fun call__DRAGON_.ite20 () Int)
(declare-fun call__DRAGON_.mem_init () Int)
(declare-fun call__DRAGON_.shared () Int)
(declare-fun call__DRAGON_.ite2 () Int)
(declare-fun call__DRAGON_.ite40 () Int)
(declare-fun call__DRAGON_.ite9 () Int)
(declare-fun call__DRAGON_.ite19 () Int)
(declare-fun call__DRAGON_.ite15 () Int)
(declare-fun param_e08 () Bool)
(declare-fun call__DRAGON_.flby3 () Int)
(declare-fun call__DRAGON_.ite56 () Int)
(declare-fun call__DRAGON_.flby6 () Int)
(declare-fun shared () Int)
(declare-fun call__DRAGON_.ite23 () Int)
(declare-fun call__DRAGON_.ite39 () Int)
(declare-fun call__DRAGON_.ite8 () Int)
(declare-fun call__DRAGON_.ite () Bool)
(declare-fun call__DRAGON_.ite3 () Int)
(declare-fun call__DRAGON_.ite58 () Int)
(declare-fun call__DRAGON_.ite43 () Int)
(declare-fun param_e07 () Bool)
(declare-fun call__DRAGON_.shared_dirty () Int)
(declare-fun param_e11 () Bool)
(declare-fun invalid () Int)
(declare-fun call__DRAGON_.ite29 () Int)
(declare-fun call__DRAGON_.ite61 () Int)
(declare-fun call__DRAGON_.ite55 () Int)
(declare-fun param_e09 () Bool)
(declare-fun call__DRAGON_.g02 () Bool)
(declare-fun call__DRAGON_.ite25 () Int)
(declare-fun call__DRAGON_.ite11 () Int)
(declare-fun _OK_ () Bool)
(declare-fun call__DRAGON_.g08 () Bool)
(declare-fun call__DRAGON_.ite35 () Int)
(declare-fun call__DRAGON_.ite28 () Int)
(declare-fun call__DRAGON_.ite27 () Int)
(declare-fun call__DRAGON_.ite46 () Int)
(declare-fun call__DRAGON_.ite38 () Int)
(declare-fun param_e03 () Bool)
(declare-fun call__DRAGON_.ite48 () Int)
(declare-fun call_First.flby () Int)
(declare-fun call__DRAGON_.g06 () Bool)
(declare-fun call__DRAGON_.ite14 () Int)
(declare-fun dirty () Int)
(declare-fun call__DRAGON_.ite32 () Int)
(declare-fun call__DRAGON_.ite60 () Int)
(declare-fun call__DRAGON_.ite18 () Int)
(declare-fun call__DRAGON_.ite45 () Int)
(declare-fun call__DRAGON_.erreur () Bool)
(declare-fun env () Bool)
(declare-fun call__DRAGON_.ite53 () Int)
(declare-fun call__DRAGON_.ite16 () Int)
(declare-fun call__DRAGON_.ite50 () Int)
(declare-fun call__DRAGON_.ite30 () Int)
(declare-fun call__DRAGON_.ite49 () Int)
(declare-fun call__DRAGON_.ite4 () Int)
(declare-fun call__DRAGON_.ite54 () Int)
(declare-fun call__DRAGON_.ite41 () Int)
(declare-fun call__DRAGON_.ite52 () Int)
(declare-fun call__DRAGON_.g05 () Bool)
(declare-fun call__DRAGON_.ite7 () Int)
(declare-fun call__DRAGON_.ite12 () Int)
(declare-fun call__DRAGON_.ite24 () Int)
(declare-fun call_Sofar.Sofar () Bool)
(declare-fun call_excludes12.excludes () Bool)
(declare-fun call__DRAGON_.ite59 () Int)
(declare-fun call__DRAGON_.ite5 () Int)
(declare-fun param_e01 () Bool)
(declare-fun param_e06 () Bool)
(declare-fun call__DRAGON_.flby4 () Int)
(declare-fun call__DRAGON_.ite51 () Int)
(declare-fun call__DRAGON_.flby2 () Int)
(declare-fun call__DRAGON_.ite36 () Int)
(declare-fun call__DRAGON_.ite22 () Int)
(declare-fun call__DRAGON_.dirty () Int)
(declare-fun call__DRAGON_.ite26 () Int)
(declare-fun param_e04 () Bool)
(define-fun .def_1745 () Bool (= call_First.flby call_First.First))
(define-fun .def_1743 () Bool (= call_Sofar.flby call_Sofar.Sofar))
(define-fun .def_1552 () Bool (not param_e02))
(define-fun .def_1533 () Bool (not param_e01))
(define-fun .def_1641 () Bool (and .def_1533 .def_1552))
(define-fun .def_1593 () Bool (not param_e03))
(define-fun .def_1642 () Bool (and .def_1593 .def_1641))
(define-fun .def_1609 () Bool (not param_e04))
(define-fun .def_1643 () Bool (and .def_1609 .def_1642))
(define-fun .def_1402 () Bool (not param_e05))
(define-fun .def_1644 () Bool (and .def_1402 .def_1643))
(define-fun .def_1384 () Bool (not param_e06))
(define-fun .def_1645 () Bool (and .def_1384 .def_1644))
(define-fun .def_1419 () Bool (not param_e07))
(define-fun .def_1646 () Bool (and .def_1419 .def_1645))
(define-fun .def_1438 () Bool (not param_e08))
(define-fun .def_1647 () Bool (and .def_1438 .def_1646))
(define-fun .def_1277 () Bool (not param_e09))
(define-fun .def_1648 () Bool (and .def_1277 .def_1647))
(define-fun .def_1283 () Bool (not param_e10))
(define-fun .def_1649 () Bool (and .def_1283 .def_1648))
(define-fun .def_1290 () Bool (not param_e11))
(define-fun .def_1650 () Bool (and .def_1290 .def_1649))
(define-fun .def_1297 () Bool (not param_e12))
(define-fun .def_1728 () Bool (and .def_1297 .def_1650))
(define-fun .def_1717 () Bool (and param_e01 .def_1552))
(define-fun .def_1718 () Bool (and .def_1593 .def_1717))
(define-fun .def_1719 () Bool (and .def_1609 .def_1718))
(define-fun .def_1720 () Bool (and .def_1402 .def_1719))
(define-fun .def_1721 () Bool (and .def_1384 .def_1720))
(define-fun .def_1722 () Bool (and .def_1419 .def_1721))
(define-fun .def_1723 () Bool (and .def_1438 .def_1722))
(define-fun .def_1724 () Bool (and .def_1277 .def_1723))
(define-fun .def_1725 () Bool (and .def_1283 .def_1724))
(define-fun .def_1726 () Bool (and .def_1290 .def_1725))
(define-fun .def_1727 () Bool (and .def_1297 .def_1726))
(define-fun .def_1729 () Bool (or .def_1727 .def_1728))
(define-fun .def_1706 () Bool (and .def_1533 param_e02))
(define-fun .def_1707 () Bool (and .def_1593 .def_1706))
(define-fun .def_1708 () Bool (and .def_1609 .def_1707))
(define-fun .def_1709 () Bool (and .def_1402 .def_1708))
(define-fun .def_1710 () Bool (and .def_1384 .def_1709))
(define-fun .def_1711 () Bool (and .def_1419 .def_1710))
(define-fun .def_1712 () Bool (and .def_1438 .def_1711))
(define-fun .def_1713 () Bool (and .def_1277 .def_1712))
(define-fun .def_1714 () Bool (and .def_1283 .def_1713))
(define-fun .def_1715 () Bool (and .def_1290 .def_1714))
(define-fun .def_1716 () Bool (and .def_1297 .def_1715))
(define-fun .def_1730 () Bool (or .def_1716 .def_1729))
(define-fun .def_1696 () Bool (and param_e03 .def_1641))
(define-fun .def_1697 () Bool (and .def_1609 .def_1696))
(define-fun .def_1698 () Bool (and .def_1402 .def_1697))
(define-fun .def_1699 () Bool (and .def_1384 .def_1698))
(define-fun .def_1700 () Bool (and .def_1419 .def_1699))
(define-fun .def_1701 () Bool (and .def_1438 .def_1700))
(define-fun .def_1702 () Bool (and .def_1277 .def_1701))
(define-fun .def_1703 () Bool (and .def_1283 .def_1702))
(define-fun .def_1704 () Bool (and .def_1290 .def_1703))
(define-fun .def_1705 () Bool (and .def_1297 .def_1704))
(define-fun .def_1731 () Bool (or .def_1705 .def_1730))
(define-fun .def_1687 () Bool (and param_e04 .def_1642))
(define-fun .def_1688 () Bool (and .def_1402 .def_1687))
(define-fun .def_1689 () Bool (and .def_1384 .def_1688))
(define-fun .def_1690 () Bool (and .def_1419 .def_1689))
(define-fun .def_1691 () Bool (and .def_1438 .def_1690))
(define-fun .def_1692 () Bool (and .def_1277 .def_1691))
(define-fun .def_1693 () Bool (and .def_1283 .def_1692))
(define-fun .def_1694 () Bool (and .def_1290 .def_1693))
(define-fun .def_1695 () Bool (and .def_1297 .def_1694))
(define-fun .def_1732 () Bool (or .def_1695 .def_1731))
(define-fun .def_1679 () Bool (and param_e05 .def_1643))
(define-fun .def_1680 () Bool (and .def_1384 .def_1679))
(define-fun .def_1681 () Bool (and .def_1419 .def_1680))
(define-fun .def_1682 () Bool (and .def_1438 .def_1681))
(define-fun .def_1683 () Bool (and .def_1277 .def_1682))
(define-fun .def_1684 () Bool (and .def_1283 .def_1683))
(define-fun .def_1685 () Bool (and .def_1290 .def_1684))
(define-fun .def_1686 () Bool (and .def_1297 .def_1685))
(define-fun .def_1733 () Bool (or .def_1686 .def_1732))
(define-fun .def_1672 () Bool (and param_e06 .def_1644))
(define-fun .def_1673 () Bool (and .def_1419 .def_1672))
(define-fun .def_1674 () Bool (and .def_1438 .def_1673))
(define-fun .def_1675 () Bool (and .def_1277 .def_1674))
(define-fun .def_1676 () Bool (and .def_1283 .def_1675))
(define-fun .def_1677 () Bool (and .def_1290 .def_1676))
(define-fun .def_1678 () Bool (and .def_1297 .def_1677))
(define-fun .def_1734 () Bool (or .def_1678 .def_1733))
(define-fun .def_1666 () Bool (and param_e07 .def_1645))
(define-fun .def_1667 () Bool (and .def_1438 .def_1666))
(define-fun .def_1668 () Bool (and .def_1277 .def_1667))
(define-fun .def_1669 () Bool (and .def_1283 .def_1668))
(define-fun .def_1670 () Bool (and .def_1290 .def_1669))
(define-fun .def_1671 () Bool (and .def_1297 .def_1670))
(define-fun .def_1735 () Bool (or .def_1671 .def_1734))
(define-fun .def_1661 () Bool (and param_e08 .def_1646))
(define-fun .def_1662 () Bool (and .def_1277 .def_1661))
(define-fun .def_1663 () Bool (and .def_1283 .def_1662))
(define-fun .def_1664 () Bool (and .def_1290 .def_1663))
(define-fun .def_1665 () Bool (and .def_1297 .def_1664))
(define-fun .def_1736 () Bool (or .def_1665 .def_1735))
(define-fun .def_1657 () Bool (and param_e09 .def_1647))
(define-fun .def_1658 () Bool (and .def_1283 .def_1657))
(define-fun .def_1659 () Bool (and .def_1290 .def_1658))
(define-fun .def_1660 () Bool (and .def_1297 .def_1659))
(define-fun .def_1737 () Bool (or .def_1660 .def_1736))
(define-fun .def_1654 () Bool (and param_e10 .def_1648))
(define-fun .def_1655 () Bool (and .def_1290 .def_1654))
(define-fun .def_1656 () Bool (and .def_1297 .def_1655))
(define-fun .def_1738 () Bool (or .def_1656 .def_1737))
(define-fun .def_1652 () Bool (and param_e11 .def_1649))
(define-fun .def_1653 () Bool (and .def_1297 .def_1652))
(define-fun .def_1739 () Bool (or .def_1653 .def_1738))
(define-fun .def_1651 () Bool (and param_e12 .def_1650))
(define-fun .def_1740 () Bool (or .def_1651 .def_1739))
(define-fun .def_1741 () Bool (= call_excludes12.excludes .def_1740))
(define-fun .def_1639 () Bool (= call__DRAGON_.mem_init call__DRAGON_.flby))
(define-fun .def_1637 () Bool (= call__DRAGON_.erreur call__DRAGON_.ite))
(define-fun .def_1635 () Bool (= call__DRAGON_.flby6 call__DRAGON_.invalid))
(define-fun .def_1633 () Bool (= call__DRAGON_.flby5 call__DRAGON_.dirty))
(define-fun .def_1631 () Bool (= call__DRAGON_.flby4 call__DRAGON_.shared_dirty))
(define-fun .def_1629 () Bool (= call__DRAGON_.flby3 call__DRAGON_.shared))
(define-fun .def_1626 () Bool (= call__DRAGON_.flby2 call__DRAGON_.exclusive))
(define-fun .def_1621 () Bool (<= 2 call__DRAGON_.exclusive))
(define-fun .def_1623 () Bool (not .def_1621))
(define-fun .def_1624 () Bool (or call__DRAGON_.ite .def_1623))
(define-fun .def_1620 () Bool (not call__DRAGON_.ite))
(define-fun .def_1622 () Bool (or .def_1620 .def_1621))
(define-fun .def_1625 () Bool (and .def_1622 .def_1624))
(define-fun .def_1627 () Bool (and .def_1625 .def_1626))
(define-fun .def_1615 () Bool (= call__DRAGON_.ite29 call__DRAGON_.ite30))
(define-fun .def_1616 () Bool (or param_e04 .def_1615))
(define-fun .def_1612 () Bool (= call__DRAGON_.ite23 call__DRAGON_.ite30))
(define-fun .def_1613 () Bool (or .def_1609 .def_1612))
(define-fun .def_1608 () Bool (= call__DRAGON_.ite43 call__DRAGON_.ite34))
(define-fun .def_1610 () Bool (or .def_1608 .def_1609))
(define-fun .def_1604 () Bool (= call__DRAGON_.ite42 call__DRAGON_.ite43))
(define-fun .def_1606 () Bool (or .def_1604 param_e04))
(define-fun .def_1611 () Bool (and .def_1606 .def_1610))
(define-fun .def_1614 () Bool (and .def_1611 .def_1613))
(define-fun .def_1617 () Bool (and .def_1614 .def_1616))
(define-fun .def_1600 () Bool (= call__DRAGON_.ite8 call__DRAGON_.ite9))
(define-fun .def_1601 () Bool (or param_e03 .def_1600))
(define-fun .def_1597 () Bool (= call__DRAGON_.ite9 call__DRAGON_.ite4))
(define-fun .def_1598 () Bool (or .def_1593 .def_1597))
(define-fun .def_1592 () Bool (= call__DRAGON_.ite44 call__DRAGON_.ite33))
(define-fun .def_1594 () Bool (or .def_1592 .def_1593))
(define-fun .def_1588 () Bool (= call__DRAGON_.ite44 call__DRAGON_.ite43))
(define-fun .def_1590 () Bool (or .def_1588 param_e03))
(define-fun .def_1595 () Bool (and .def_1590 .def_1594))
(define-fun .def_1599 () Bool (and .def_1595 .def_1598))
(define-fun .def_1602 () Bool (and .def_1599 .def_1601))
(define-fun .def_1583 () Bool (= call__DRAGON_.ite31 call__DRAGON_.ite30))
(define-fun .def_1584 () Bool (or param_e02 .def_1583))
(define-fun .def_1579 () Bool (= call__DRAGON_.ite22 call__DRAGON_.ite31))
(define-fun .def_1580 () Bool (or .def_1552 .def_1579))
(define-fun .def_1574 () Bool (= call__DRAGON_.ite20 call__DRAGON_.ite21))
(define-fun .def_1575 () Bool (or param_e02 .def_1574))
(define-fun .def_1571 () Bool (= call__DRAGON_.ite12 call__DRAGON_.ite21))
(define-fun .def_1572 () Bool (or .def_1552 .def_1571))
(define-fun .def_1566 () Bool (= call__DRAGON_.ite10 call__DRAGON_.ite9))
(define-fun .def_1567 () Bool (or param_e02 .def_1566))
(define-fun .def_1562 () Bool (= call__DRAGON_.ite3 call__DRAGON_.ite10))
(define-fun .def_1563 () Bool (or .def_1552 .def_1562))
(define-fun .def_1559 () Bool (= call__DRAGON_.ite59 call__DRAGON_.ite60))
(define-fun .def_1560 () Bool (or param_e02 .def_1559))
(define-fun .def_1556 () Bool (= call__DRAGON_.ite60 call__DRAGON_.ite47))
(define-fun .def_1557 () Bool (or .def_1552 .def_1556))
(define-fun .def_1551 () Bool (= call__DRAGON_.ite32 call__DRAGON_.ite45))
(define-fun .def_1553 () Bool (or .def_1551 .def_1552))
(define-fun .def_1548 () Bool (= call__DRAGON_.ite45 call__DRAGON_.ite44))
(define-fun .def_1550 () Bool (or .def_1548 param_e02))
(define-fun .def_1554 () Bool (and .def_1550 .def_1553))
(define-fun .def_1558 () Bool (and .def_1554 .def_1557))
(define-fun .def_1561 () Bool (and .def_1558 .def_1560))
(define-fun .def_1564 () Bool (and .def_1561 .def_1563))
(define-fun .def_1568 () Bool (and .def_1564 .def_1567))
(define-fun .def_1573 () Bool (and .def_1568 .def_1572))
(define-fun .def_1576 () Bool (and .def_1573 .def_1575))
(define-fun .def_1581 () Bool (and .def_1576 .def_1580))
(define-fun .def_1585 () Bool (and .def_1581 .def_1584))
(define-fun .def_1542 () Bool (= call__DRAGON_.ite11 call__DRAGON_.ite10))
(define-fun .def_1543 () Bool (or param_e01 .def_1542))
(define-fun .def_1538 () Bool (= call__DRAGON_.ite2 call__DRAGON_.ite11))
(define-fun .def_1539 () Bool (or .def_1533 .def_1538))
(define-fun .def_1532 () Bool (= call__DRAGON_.ite61 call__DRAGON_.ite46))
(define-fun .def_1534 () Bool (or .def_1532 .def_1533))
(define-fun .def_1528 () Bool (= call__DRAGON_.ite61 call__DRAGON_.ite60))
(define-fun .def_1530 () Bool (or .def_1528 param_e01))
(define-fun .def_1535 () Bool (and .def_1530 .def_1534))
(define-fun .def_1540 () Bool (and .def_1535 .def_1539))
(define-fun .def_1544 () Bool (and .def_1540 .def_1543))
(define-fun .def_1522 () Bool (= call__DRAGON_.ite55 call__DRAGON_.ite52))
(define-fun .def_1523 () Bool (or .def_1290 .def_1522))
(define-fun .def_1519 () Bool (= call__DRAGON_.ite54 call__DRAGON_.ite55))
(define-fun .def_1520 () Bool (or param_e11 .def_1519))
(define-fun .def_1524 () Bool (and .def_1520 .def_1523))
(define-fun .def_1515 () Bool (= call__DRAGON_.ite56 call__DRAGON_.ite51))
(define-fun .def_1516 () Bool (or .def_1283 .def_1515))
(define-fun .def_1512 () Bool (= call__DRAGON_.ite56 call__DRAGON_.ite55))
(define-fun .def_1513 () Bool (or param_e10 .def_1512))
(define-fun .def_1517 () Bool (and .def_1513 .def_1516))
(define-fun .def_1507 () Bool (= call__DRAGON_.ite57 call__DRAGON_.ite50))
(define-fun .def_1508 () Bool (or .def_1277 .def_1507))
(define-fun .def_1504 () Bool (= call__DRAGON_.ite57 call__DRAGON_.ite56))
(define-fun .def_1505 () Bool (or param_e09 .def_1504))
(define-fun .def_1509 () Bool (and .def_1505 .def_1508))
(define-fun .def_1501 () Bool (= env call_Sofar.Sofar))
(define-fun .def_1498 () Bool (= erreur call__DRAGON_.erreur))
(define-fun .def_1494 () Bool (= invalid call__DRAGON_.invalid))
(define-fun .def_1490 () Bool (= dirty call__DRAGON_.dirty))
(define-fun .def_1486 () Bool (= shared_dirty call__DRAGON_.shared_dirty))
(define-fun .def_1482 () Bool (= shared call__DRAGON_.shared))
(define-fun .def_1479 () Bool (= exclusive call__DRAGON_.exclusive))
(define-fun .def_1473 () Bool (<= shared call_First.First))
(define-fun .def_1470 () Bool (not env))
(define-fun .def_1474 () Bool (or .def_1470 .def_1473))
(define-fun .def_1475 () Bool (= _OK_ .def_1474))
(define-fun .def_1464 () Bool (= call__DRAGON_.ite39 call__DRAGON_.ite40))
(define-fun .def_1465 () Bool (or param_e08 .def_1464))
(define-fun .def_1461 () Bool (= call__DRAGON_.ite37 call__DRAGON_.ite40))
(define-fun .def_1462 () Bool (or .def_1438 .def_1461))
(define-fun .def_1458 () Bool (= call__DRAGON_.ite27 call__DRAGON_.ite28))
(define-fun .def_1459 () Bool (or param_e08 .def_1458))
(define-fun .def_1455 () Bool (= call__DRAGON_.ite25 call__DRAGON_.ite28))
(define-fun .def_1456 () Bool (or .def_1438 .def_1455))
(define-fun .def_1452 () Bool (= call__DRAGON_.ite17 call__DRAGON_.ite18))
(define-fun .def_1453 () Bool (or param_e08 .def_1452))
(define-fun .def_1449 () Bool (= call__DRAGON_.ite18 call__DRAGON_.ite15))
(define-fun .def_1450 () Bool (or .def_1438 .def_1449))
(define-fun .def_1445 () Bool (= call__DRAGON_.ite7 call__DRAGON_.ite8))
(define-fun .def_1446 () Bool (or param_e08 .def_1445))
(define-fun .def_1442 () Bool (= call__DRAGON_.ite5 call__DRAGON_.ite8))
(define-fun .def_1443 () Bool (or .def_1438 .def_1442))
(define-fun .def_1437 () Bool (= call__DRAGON_.ite58 call__DRAGON_.ite49))
(define-fun .def_1439 () Bool (or .def_1437 .def_1438))
(define-fun .def_1433 () Bool (= call__DRAGON_.ite58 call__DRAGON_.ite57))
(define-fun .def_1435 () Bool (or .def_1433 param_e08))
(define-fun .def_1440 () Bool (and .def_1435 .def_1439))
(define-fun .def_1444 () Bool (and .def_1440 .def_1443))
(define-fun .def_1447 () Bool (and .def_1444 .def_1446))
(define-fun .def_1451 () Bool (and .def_1447 .def_1450))
(define-fun .def_1454 () Bool (and .def_1451 .def_1453))
(define-fun .def_1457 () Bool (and .def_1454 .def_1456))
(define-fun .def_1460 () Bool (and .def_1457 .def_1459))
(define-fun .def_1463 () Bool (and .def_1460 .def_1462))
(define-fun .def_1466 () Bool (and .def_1463 .def_1465))
(define-fun .def_1428 () Bool (= call__DRAGON_.ite59 call__DRAGON_.ite58))
(define-fun .def_1429 () Bool (or param_e07 .def_1428))
(define-fun .def_1424 () Bool (= call__DRAGON_.ite48 call__DRAGON_.ite59))
(define-fun .def_1425 () Bool (or .def_1419 .def_1424))
(define-fun .def_1418 () Bool (= call__DRAGON_.ite41 call__DRAGON_.ite36))
(define-fun .def_1420 () Bool (or .def_1418 .def_1419))
(define-fun .def_1414 () Bool (= call__DRAGON_.ite41 call__DRAGON_.ite40))
(define-fun .def_1416 () Bool (or .def_1414 param_e07))
(define-fun .def_1421 () Bool (and .def_1416 .def_1420))
(define-fun .def_1426 () Bool (and .def_1421 .def_1425))
(define-fun .def_1430 () Bool (and .def_1426 .def_1429))
(define-fun .def_1409 () Bool (= call__DRAGON_.ite19 call__DRAGON_.ite20))
(define-fun .def_1410 () Bool (or param_e05 .def_1409))
(define-fun .def_1406 () Bool (= call__DRAGON_.ite13 call__DRAGON_.ite20))
(define-fun .def_1407 () Bool (or .def_1402 .def_1406))
(define-fun .def_1401 () Bool (= call__DRAGON_.ite42 call__DRAGON_.ite35))
(define-fun .def_1403 () Bool (or .def_1401 .def_1402))
(define-fun .def_1397 () Bool (= call__DRAGON_.ite41 call__DRAGON_.ite42))
(define-fun .def_1399 () Bool (or .def_1397 param_e05))
(define-fun .def_1404 () Bool (and .def_1399 .def_1403))
(define-fun .def_1408 () Bool (and .def_1404 .def_1407))
(define-fun .def_1411 () Bool (and .def_1408 .def_1410))
(define-fun .def_1392 () Bool (= call__DRAGON_.ite29 call__DRAGON_.ite28))
(define-fun .def_1393 () Bool (or param_e06 .def_1392))
(define-fun .def_1388 () Bool (= call__DRAGON_.ite24 call__DRAGON_.ite29))
(define-fun .def_1389 () Bool (or .def_1384 .def_1388))
(define-fun .def_1383 () Bool (= call__DRAGON_.ite19 call__DRAGON_.ite14))
(define-fun .def_1385 () Bool (or .def_1383 .def_1384))
(define-fun .def_1379 () Bool (= call__DRAGON_.ite19 call__DRAGON_.ite18))
(define-fun .def_1381 () Bool (or .def_1379 param_e06))
(define-fun .def_1386 () Bool (and .def_1381 .def_1385))
(define-fun .def_1390 () Bool (and .def_1386 .def_1389))
(define-fun .def_1394 () Bool (and .def_1390 .def_1393))
(define-fun .def_1412 () Bool (and .def_1394 .def_1411))
(define-fun .def_1431 () Bool (and .def_1412 .def_1430))
(define-fun .def_1467 () Bool (and .def_1431 .def_1466))
(define-fun .def_1476 () Bool (and .def_1467 .def_1475))
(define-fun .def_1480 () Bool (and .def_1476 .def_1479))
(define-fun .def_1483 () Bool (and .def_1480 .def_1482))
(define-fun .def_1487 () Bool (and .def_1483 .def_1486))
(define-fun .def_1491 () Bool (and .def_1487 .def_1490))
(define-fun .def_1495 () Bool (and .def_1491 .def_1494))
(define-fun .def_1499 () Bool (and .def_1495 .def_1498))
(define-fun .def_1502 () Bool (and .def_1499 .def_1501))
(define-fun .def_1510 () Bool (and .def_1502 .def_1509))
(define-fun .def_1518 () Bool (and .def_1510 .def_1517))
(define-fun .def_1525 () Bool (and .def_1518 .def_1524))
(define-fun .def_1545 () Bool (and .def_1525 .def_1544))
(define-fun .def_1586 () Bool (and .def_1545 .def_1585))
(define-fun .def_1603 () Bool (and .def_1586 .def_1602))
(define-fun .def_1618 () Bool (and .def_1603 .def_1617))
(define-fun .def_1628 () Bool (and .def_1618 .def_1627))
(define-fun .def_1630 () Bool (and .def_1628 .def_1629))
(define-fun .def_1632 () Bool (and .def_1630 .def_1631))
(define-fun .def_1634 () Bool (and .def_1632 .def_1633))
(define-fun .def_1636 () Bool (and .def_1634 .def_1635))
(define-fun .def_1638 () Bool (and .def_1636 .def_1637))
(define-fun .def_1640 () Bool (and .def_1638 .def_1639))
(define-fun .def_1742 () Bool (and .def_1640 .def_1741))
(define-fun .def_1744 () Bool (and .def_1742 .def_1743))
(define-fun .def_1746 () Bool (and .def_1744 .def_1745))
(define-fun .def_1375 () Bool (= param_init_invalid call_First.flby))
(define-fun .def_1367 () Bool (<= param_init_invalid 0))
(define-fun .def_1368 () Bool (not .def_1367))
(define-fun .def_1370 () Bool (and .def_1368 call_excludes12.excludes))
(define-fun .def_1372 () Bool (= .def_1370 call_Sofar.flby))
(define-fun .def_1365 () Bool (= call__DRAGON_.flby4 0))
(define-fun .def_1362 () Bool (= call__DRAGON_.flby3 0))
(define-fun .def_1359 () Bool (= call__DRAGON_.flby2 0))
(define-fun .def_1356 () Bool (= param_init_invalid call__DRAGON_.flby))
(define-fun .def_1350 () Bool (= call__DRAGON_.ite37 0))
(define-fun .def_1343 () Bool (not call__DRAGON_.g08))
(define-fun .def_1351 () Bool (or .def_1343 .def_1350))
(define-fun .def_1346 () Bool (= call__DRAGON_.ite5 0))
(define-fun .def_1347 () Bool (or .def_1343 .def_1346))
(define-fun .def_1341 () Bool (= call__DRAGON_.ite25 1))
(define-fun .def_1344 () Bool (or .def_1341 .def_1343))
(define-fun .def_1348 () Bool (and .def_1344 .def_1347))
(define-fun .def_1352 () Bool (and .def_1348 .def_1351))
(define-fun .def_1337 () Bool (= call__DRAGON_.ite24 1))
(define-fun .def_1335 () Bool (not call__DRAGON_.g06))
(define-fun .def_1338 () Bool (or .def_1335 .def_1337))
(define-fun .def_1331 () Bool (= call__DRAGON_.ite13 0))
(define-fun .def_1329 () Bool (not call__DRAGON_.g05))
(define-fun .def_1332 () Bool (or .def_1329 .def_1331))
(define-fun .def_1325 () Bool (= call__DRAGON_.ite23 0))
(define-fun .def_1323 () Bool (not call__DRAGON_.g04))
(define-fun .def_1326 () Bool (or .def_1323 .def_1325))
(define-fun .def_1318 () Bool (= call__DRAGON_.ite3 0))
(define-fun .def_1315 () Bool (not call__DRAGON_.g02))
(define-fun .def_1319 () Bool (or .def_1315 .def_1318))
(define-fun .def_1313 () Bool (= call__DRAGON_.ite32 0))
(define-fun .def_1316 () Bool (or .def_1313 .def_1315))
(define-fun .def_1320 () Bool (and .def_1316 .def_1319))
(define-fun .def_1310 () Bool (= call__DRAGON_.flby6 call__DRAGON_.mem_init))
(define-fun .def_1306 () Bool (= call__DRAGON_.flby5 0))
(define-fun .def_1301 () Bool (= call__DRAGON_.ite53 call__DRAGON_.ite54))
(define-fun .def_1302 () Bool (or .def_1297 .def_1301))
(define-fun .def_1295 () Bool (= call__DRAGON_.ite6 call__DRAGON_.ite7))
(define-fun .def_1298 () Bool (or .def_1295 .def_1297))
(define-fun .def_1303 () Bool (and .def_1298 .def_1302))
(define-fun .def_1288 () Bool (= call__DRAGON_.ite26 call__DRAGON_.ite27))
(define-fun .def_1291 () Bool (or .def_1288 .def_1290))
(define-fun .def_1281 () Bool (= call__DRAGON_.ite16 call__DRAGON_.ite17))
(define-fun .def_1284 () Bool (or .def_1281 .def_1283))
(define-fun .def_1275 () Bool (= call__DRAGON_.ite38 call__DRAGON_.ite39))
(define-fun .def_1278 () Bool (or .def_1275 .def_1277))
(define-fun .def_1285 () Bool (and .def_1278 .def_1284))
(define-fun .def_1292 () Bool (and .def_1285 .def_1291))
(define-fun .def_1304 () Bool (and .def_1292 .def_1303))
(define-fun .def_1307 () Bool (and .def_1304 .def_1306))
(define-fun .def_1311 () Bool (and .def_1307 .def_1310))
(define-fun .def_1321 () Bool (and .def_1311 .def_1320))
(define-fun .def_1327 () Bool (and .def_1321 .def_1326))
(define-fun .def_1333 () Bool (and .def_1327 .def_1332))
(define-fun .def_1339 () Bool (and .def_1333 .def_1338))
(define-fun .def_1353 () Bool (and .def_1339 .def_1352))
(define-fun .def_1357 () Bool (and .def_1353 .def_1356))
(define-fun .def_1360 () Bool (and .def_1357 .def_1359))
(define-fun .def_1363 () Bool (and .def_1360 .def_1362))
(define-fun .def_1366 () Bool (and .def_1363 .def_1365))
(define-fun .def_1373 () Bool (and .def_1366 .def_1372))
(define-fun .def_1376 () Bool (and .def_1373 .def_1375))
(define-fun .def_1747 () Bool (and .def_1376 .def_1746))
(assert .def_1747)
